p tw 110 121
1 2
2 23
3 14
4 5
5 6
6 7
7 8
8 9
9 10
10 11
11 12
12 13
14 15
14 19
15 16
16 17
17 18
18 10
19 20
20 21
21 22
22 24
23 34
23 56
24 25
25 26
25 99
26 27
27 28
27 99
28 29
29 30
29 94
30 31
31 32
32 33
33 35
33 39
34 45
35 36
36 37
37 38
38 10
39 40
40 41
41 42
42 43
43 44
44 46
44 77
45 10
46 47
47 48
48 49
49 50
50 51
51 52
52 53
53 54
54 55
55 57
56 67
57 58
58 59
59 60
60 61
61 62
62 63
63 64
64 65
65 66
66 68
67 78
68 69
69 70
69 80
70 71
71 72
72 73
73 74
74 75
75 76
76 80
77 79
78 89
79 80
80 81
81 82
82 83
83 84
83 10
84 85
85 86
86 87
87 88
88 90
88 10
89 100
90 91
91 92
92 93
93 10
94 95
95 96
96 97
97 98
98 10
99 101
100 3
101 102
102 103
103 104
103 106
104 105
105 7
106 107
107 108
108 109
109 110
110 4
110 5
